NAME: berlin52-20-0
TYPE: TSP
COMMENT: min_cost = 5142.73
DIMENSION: 20
EDGE_WEIGHT_TYPE: EUC_2D
NODE_COORD_SECTION
1 1150 1160
2 520 585
3 975 580
4 95 260
5 700 580
6 845 655
7 1220 580
8 145 665
9 880 660
10 1740 245
11 1605 620
12 845 680
13 560 365
14 1320 315
15 835 625
16 580 1175
17 300 465
18 420 555
19 685 595
20 720 635
EOF
